p tw 20 53
0 1
0 7
0 16
0 18
1 9
1 7
1 11
1 10
1 4
1 12
2 3
2 13
2 5
2 10
3 7
3 15
3 14
3 5
4 5
4 6
4 17
5 6
5 7
5 16
6 7
6 12
6 15
6 13
6 11
7 8
7 15
7 18
7 16
7 9
7 12
8 16
8 19
9 12
9 13
9 17
9 10
10 11
11 18
11 13
12 18
13 14
13 19
14 15
14 19
15 17
16 17
17 18
18 19
